3 
4 
5  05 27 47 
6  01 08 16 23 31 39 45 54 
7  01 09 15 21 29 36 44 51 59 
8  06 14 21 29 36 44 51 59 
9  06 14 21 29 36 44 51 59 
10  06 14 21 29 36 44 51 59 
11  06 14 21 29 36 44 51 59 
12  06 14 21 29 36 44 51 59 
13  06 15 22 30 37 45 52 
14  00 07 15 22 30 37 45 52 
15  00 07 15 21 30 37 45 52 
16  00 07 15 21 30 37 45 52 
17  00 07 15 22 30 37 45 52 
18  00 07 15 22 30 37 45 53 
19  00 07 14 21 29 36 44 51 59 
20  06 14 21 31 46 
21  01 16 31 46 
22  01 16 28 41 56 
23  11 
0 
